\ Model (null)_copy
\ LP format - for model browsing. Use MPS format to capture full model detail.
Minimize
 
Subject To
 operation_constraint_1: A_1_1_1 = 1
 end_time_constraint_1: - 0.2 A_1_1_1 - t_1 + e_1 = 0
Bounds
 -infinity <= e_1 <= 0.1
Binaries
 A_1_1_1
End
